(set-info :smt-lib-version 2.6)
(set-logic UF)
(set-info :source |Benchmarks from the paper: "Extending Sledgehammer with SMT Solvers" by Jasmin Blanchette, Sascha Bohme, and Lawrence C. Paulson, CADE 2011.  Translated to SMT2 by Andrew Reynolds and Morgan Deters.|)
(set-info :category "industrial")
(set-info :status unsat)
(declare-sort S1 0)
(declare-sort S2 0)
(declare-sort S3 0)
(declare-sort S4 0)
(declare-sort S5 0)
(declare-sort S6 0)
(declare-sort S7 0)
(declare-sort S8 0)
(declare-sort S9 0)
(declare-sort S10 0)
(declare-sort S11 0)
(declare-sort S12 0)
(declare-sort S13 0)
(declare-sort S14 0)
(declare-sort S15 0)
(declare-sort S16 0)
(declare-sort S17 0)
(declare-sort S18 0)
(declare-sort S19 0)
(declare-sort S20 0)
(declare-sort S21 0)
(declare-sort S22 0)
(declare-sort S23 0)
(declare-sort S24 0)
(declare-fun f1 () S1)
(declare-fun f2 () S1)
(declare-fun f3 (S3 S4) S1)
(declare-fun f4 (S5) S4)
(declare-fun f5 () S5)
(declare-fun f6 (S3 S6) S1)
(declare-fun f7 (S7 S3) S3)
(declare-fun f8 (S8 S2) S7)
(declare-fun f9 () S8)
(declare-fun f10 (S9 S6) S2)
(declare-fun f11 () S9)
(declare-fun f12 (S10 S5) S6)
(declare-fun f13 (S11 S12) S10)
(declare-fun f14 () S11)
(declare-fun f15 () S12)
(declare-fun f16 (S13 S6) S6)
(declare-fun f17 (S14 S2) S13)
(declare-fun f18 () S14)
(declare-fun f19 (S15 S2) S2)
(declare-fun f20 (S16 S2) S15)
(declare-fun f21 () S16)
(declare-fun f22 () S6)
(declare-fun f23 (S17 S2) S1)
(declare-fun f24 (S2) S17)
(declare-fun f25 () S16)
(declare-fun f26 () S2)
(declare-fun f27 (S12 S3) S2)
(declare-fun f28 (S2) S17)
(declare-fun f29 (S2 S17) S1)
(declare-fun f30 (S4 S3) S1)
(declare-fun f31 (S6) S17)
(declare-fun f32 (S20 S18) S18)
(declare-fun f33 (S21 S19) S20)
(declare-fun f34 () S21)
(declare-fun f35 (S23 S22) S22)
(declare-fun f36 (S24 S18) S23)
(declare-fun f37 () S24)
(assert (not (= f1 f2)))
(assert (not (= (exists ((?v0 S2)) (forall ((?v1 S3)) (let ((?v_0 (f10 f11 (f12 (f13 f14 f15) f5)))) (=> (= (f3 ?v1 (f4 f5)) f1) (= (f6 (f7 (f8 f9 ?v_0) ?v1) (f16 (f17 f18 (f19 (f20 f21 ?v_0) ?v0)) f22)) f1))))) (exists ((?v0 S2)) (and (= (f23 (f24 (f10 f11 (f12 (f13 f14 f15) f5))) (f19 (f20 f25 ?v0) f26)) f1) (forall ((?v1 S3)) (=> (= (f3 ?v1 (f4 f5)) f1) (= (f6 (f7 (f8 f9 (f10 f11 (f12 (f13 f14 f15) f5))) ?v1) (f16 (f17 f18 ?v0) f22)) f1))))))))
(assert (forall ((?v0 S3)) (=> (= (f3 ?v0 (f4 f5)) f1) (not (= (f27 f15 ?v0) f26)))))
(assert (= (exists ((?v0 S2)) (forall ((?v1 S3)) (=> (= (f3 ?v1 (f4 f5)) f1) (= (f6 ?v1 (f16 (f17 f18 ?v0) f22)) f1)))) (exists ((?v0 S2)) (forall ((?v1 S3)) (let ((?v_0 (f10 f11 (f12 (f13 f14 f15) f5)))) (=> (= (f3 ?v1 (f4 f5)) f1) (= (f6 (f7 (f8 f9 ?v_0) ?v1) (f16 (f17 f18 (f19 (f20 f21 ?v_0) ?v0)) f22)) f1)))))))
(assert (= (f23 (f28 f26) (f10 f11 (f12 (f13 f14 f15) f5))) f1))
(assert (forall ((?v0 S2)) (= (f23 (f24 ?v0) f26) f1)))
(assert (forall ((?v0 S17) (?v1 S2)) (= (exists ((?v2 S2)) (= (f23 ?v0 (f19 (f20 f21 ?v1) ?v2)) f1)) (exists ((?v2 S2)) (and (= (f23 (f24 ?v1) (f19 (f20 f25 ?v2) f26)) f1) (= (f23 ?v0 ?v2) f1))))))
(assert (forall ((?v0 S2) (?v1 S2) (?v2 S2)) (let ((?v_0 (f24 ?v0))) (= (= (f23 ?v_0 (f19 (f20 f25 ?v1) (f19 (f20 f21 ?v0) ?v2))) f1) (= (f23 ?v_0 ?v1) f1)))))
(assert (forall ((?v0 S2) (?v1 S2) (?v2 S2) (?v3 S2) (?v4 S2)) (let ((?v_0 (f24 ?v0)) (?v_1 (f20 f25 ?v2))) (=> (= (f23 ?v_0 ?v1) f1) (= (= (f23 ?v_0 (f19 ?v_1 ?v3)) f1) (= (f23 ?v_0 (f19 (f20 f25 (f19 ?v_1 (f19 (f20 f21 ?v4) ?v1))) ?v3)) f1))))))
(assert (forall ((?v0 S2) (?v1 S2) (?v2 S2)) (let ((?v_0 (f20 f21 ?v0))) (=> (not (= ?v0 f26)) (= (= (f23 (f24 ?v1) ?v2) f1) (= (f23 (f24 (f19 ?v_0 ?v1)) (f19 ?v_0 ?v2)) f1))))))
(assert (forall ((?v0 S2) (?v1 S2) (?v2 S2)) (let ((?v_0 (f20 f21 ?v0))) (=> (= (f23 (f24 (f19 ?v_0 ?v1)) (f19 ?v_0 ?v2)) f1) (=> (not (= ?v0 f26)) (= (f23 (f24 ?v1) ?v2) f1))))))
(assert (forall ((?v0 S2) (?v1 S2) (?v2 S2)) (= (= (f23 (f24 (f19 (f20 f21 ?v0) ?v1)) (f19 (f20 f21 ?v2) ?v1)) f1) (or (= ?v1 f26) (= (f23 (f24 ?v0) ?v2) f1)))))
(assert (forall ((?v0 S2) (?v1 S2) (?v2 S2)) (let ((?v_0 (f20 f21 ?v0))) (= (= (f23 (f24 (f19 ?v_0 ?v1)) (f19 ?v_0 ?v2)) f1) (or (= ?v0 f26) (= (f23 (f24 ?v1) ?v2) f1))))))
(assert (forall ((?v0 S2) (?v1 S2)) (= (= (f19 (f20 f25 (f19 (f20 f21 ?v0) ?v0)) (f19 (f20 f21 ?v1) ?v1)) f26) (and (= ?v0 f26) (= ?v1 f26)))))
(assert (forall ((?v0 S2) (?v1 S2) (?v2 S2) (?v3 S2) (?v4 S2)) (let ((?v_0 (f20 f21 ?v0))) (=> (not (= ?v0 f26)) (=> (and (= ?v1 ?v2) (not (= ?v3 ?v4))) (not (= (f19 (f20 f25 ?v1) (f19 ?v_0 ?v3)) (f19 (f20 f25 ?v2) (f19 ?v_0 ?v4)))))))))
(assert (forall ((?v0 S2) (?v1 S2) (?v2 S2)) (let ((?v_0 (f20 f21 ?v0))) (= (f19 ?v_0 (f19 (f20 f25 ?v1) ?v2)) (f19 (f20 f25 (f19 ?v_0 ?v1)) (f19 ?v_0 ?v2))))))
(assert (forall ((?v0 S2) (?v1 S2)) (or (= (f23 (f28 ?v0) ?v1) f1) (or (= ?v0 ?v1) (= (f23 (f28 ?v1) ?v0) f1)))))
(assert (forall ((?v0 S2) (?v1 S2)) (=> (not (= ?v0 ?v1)) (=> (=> (= (f23 (f28 ?v0) ?v1) f1) false) (=> (=> (= (f23 (f28 ?v1) ?v0) f1) false) false)))))
(assert (forall ((?v0 S2) (?v1 S2) (?v2 S2)) (=> (= (f23 (f28 ?v0) ?v1) f1) (= (f23 (f28 (f19 (f20 f25 ?v0) ?v2)) (f19 (f20 f25 ?v1) ?v2)) f1))))
(assert (forall ((?v0 S2) (?v1 S2) (?v2 S2)) (let ((?v_0 (f20 f21 ?v2))) (=> (= (f23 (f28 ?v0) ?v1) f1) (=> (= (f23 (f28 ?v2) f26) f1) (= (f23 (f28 (f19 ?v_0 ?v1)) (f19 ?v_0 ?v0)) f1))))))
(assert (forall ((?v0 S2) (?v1 S2) (?v2 S2)) (=> (= (f23 (f28 ?v0) ?v1) f1) (=> (= (f23 (f28 ?v2) f26) f1) (= (f23 (f28 (f19 (f20 f21 ?v1) ?v2)) (f19 (f20 f21 ?v0) ?v2)) f1)))))
(assert (forall ((?v0 S2) (?v1 S2) (?v2 S2)) (let ((?v_0 (f20 f21 ?v2))) (=> (= (f23 (f28 ?v0) ?v1) f1) (=> (= (f23 (f28 f26) ?v2) f1) (= (f23 (f28 (f19 ?v_0 ?v0)) (f19 ?v_0 ?v1)) f1))))))
(assert (forall ((?v0 S2) (?v1 S2) (?v2 S2)) (let ((?v_0 (f20 f21 ?v2))) (=> (= (f23 (f28 ?v0) ?v1) f1) (=> (= (f23 (f28 f26) ?v2) f1) (= (f23 (f28 (f19 ?v_0 ?v0)) (f19 ?v_0 ?v1)) f1))))))
(assert (forall ((?v0 S2) (?v1 S2) (?v2 S2)) (=> (= (f23 (f28 ?v0) ?v1) f1) (=> (= (f23 (f28 f26) ?v2) f1) (= (f23 (f28 (f19 (f20 f21 ?v0) ?v2)) (f19 (f20 f21 ?v1) ?v2)) f1)))))
(assert (forall ((?v0 S2) (?v1 S2)) (=> (= (f23 (f28 ?v0) f26) f1) (=> (= (f23 (f28 ?v1) f26) f1) (= (f23 (f28 f26) (f19 (f20 f21 ?v0) ?v1)) f1)))))
(assert (forall ((?v0 S2) (?v1 S2)) (=> (= (f23 (f28 ?v0) f26) f1) (=> (= (f23 (f28 f26) ?v1) f1) (= (f23 (f28 (f19 (f20 f21 ?v0) ?v1)) f26) f1)))))
(assert (forall ((?v0 S2) (?v1 S2) (?v2 S2)) (let ((?v_0 (f20 f21 ?v0))) (=> (= (f23 (f28 ?v0) f26) f1) (= (= (f23 (f28 (f19 ?v_0 ?v1)) (f19 ?v_0 ?v2)) f1) (= (f23 (f28 ?v2) ?v1) f1))))))
(assert (forall ((?v0 S2) (?v1 S2)) (let ((?v_0 (f28 f26))) (=> (= (f23 ?v_0 (f19 (f20 f21 ?v0) ?v1)) f1) (=> (= (f23 ?v_0 ?v1) f1) (= (f23 ?v_0 ?v0) f1))))))
(assert (forall ((?v0 S2) (?v1 S2)) (let ((?v_0 (f28 f26))) (=> (= (f23 ?v_0 (f19 (f20 f21 ?v0) ?v1)) f1) (=> (= (f23 ?v_0 ?v0) f1) (= (f23 ?v_0 ?v1) f1))))))
(assert (forall ((?v0 S2) (?v1 S2)) (=> (= (f23 (f28 f26) ?v0) f1) (=> (= (f23 (f28 ?v1) f26) f1) (= (f23 (f28 (f19 (f20 f21 ?v1) ?v0)) f26) f1)))))
(assert (forall ((?v0 S2) (?v1 S2)) (=> (= (f23 (f28 f26) ?v0) f1) (=> (= (f23 (f28 ?v1) f26) f1) (= (f23 (f28 (f19 (f20 f21 ?v0) ?v1)) f26) f1)))))
(assert (forall ((?v0 S2) (?v1 S2)) (let ((?v_0 (f28 f26))) (=> (= (f23 ?v_0 ?v0) f1) (=> (= (f23 ?v_0 ?v1) f1) (= (f23 ?v_0 (f19 (f20 f21 ?v0) ?v1)) f1))))))
(assert (forall ((?v0 S2) (?v1 S2) (?v2 S2)) (let ((?v_0 (f20 f21 ?v0))) (=> (= (f23 (f28 f26) ?v0) f1) (= (= (f23 (f28 (f19 ?v_0 ?v1)) (f19 ?v_0 ?v2)) f1) (= (f23 (f28 ?v1) ?v2) f1))))))
(assert (forall ((?v0 S2) (?v1 S2) (?v2 S2)) (let ((?v_0 (f20 f21 ?v0))) (= (= (f23 (f28 (f19 ?v_0 ?v1)) (f19 ?v_0 ?v2)) f1) (or (and (= (f23 (f28 f26) ?v0) f1) (= (f23 (f28 ?v1) ?v2) f1)) (and (= (f23 (f28 ?v0) f26) f1) (= (f23 (f28 ?v2) ?v1) f1)))))))
(assert (forall ((?v0 S2) (?v1 S2) (?v2 S2)) (= (= (f23 (f28 (f19 (f20 f21 ?v0) ?v1)) (f19 (f20 f21 ?v2) ?v1)) f1) (or (and (= (f23 (f28 f26) ?v1) f1) (= (f23 (f28 ?v0) ?v2) f1)) (and (= (f23 (f28 ?v1) f26) f1) (= (f23 (f28 ?v2) ?v0) f1))))))
(assert (forall ((?v0 S2)) (not (= (f23 (f28 (f19 (f20 f21 ?v0) ?v0)) f26) f1))))
(assert (forall ((?v0 S2) (?v1 S2) (?v2 S2)) (let ((?v_0 (f28 ?v1))) (=> (= (f23 (f28 f26) ?v0) f1) (=> (= (f23 ?v_0 ?v2) f1) (= (f23 ?v_0 (f19 (f20 f25 ?v0) ?v2)) f1))))))
(assert (forall ((?v0 S2)) (= (= (f23 (f28 (f19 (f20 f25 ?v0) ?v0)) f26) f1) (= (f23 (f28 ?v0) f26) f1))))
(assert (forall ((?v0 S2) (?v1 S2) (?v2 S2)) (let ((?v_0 (f20 f21 ?v2))) (=> (= (f23 (f28 ?v0) ?v1) f1) (=> (= (f23 (f28 f26) ?v2) f1) (= (f23 (f28 (f19 ?v_0 ?v0)) (f19 ?v_0 ?v1)) f1))))))
(assert (forall ((?v0 S2) (?v1 S2)) (=> (= (f23 (f28 f26) ?v0) f1) (=> (= (f23 (f28 ?v0) ?v1) f1) (not (= (f23 (f24 ?v1) ?v0) f1))))))
(assert (forall ((?v0 S2) (?v1 S2)) (= (= (f23 (f28 f26) (f19 (f20 f25 (f19 (f20 f21 ?v0) ?v0)) (f19 (f20 f21 ?v1) ?v1))) f1) (or (not (= ?v0 f26)) (not (= ?v1 f26))))))
(assert (forall ((?v0 S2) (?v1 S2)) (not (= (f23 (f28 (f19 (f20 f25 (f19 (f20 f21 ?v0) ?v0)) (f19 (f20 f21 ?v1) ?v1))) f26) f1))))
(assert (forall ((?v0 S2) (?v1 S2) (?v2 S2) (?v3 S2)) (let ((?v_0 (f20 f21 ?v0))) (= (f19 (f20 f21 (f19 ?v_0 ?v1)) (f19 (f20 f21 ?v2) ?v3)) (f19 (f20 f21 (f19 ?v_0 ?v2)) (f19 (f20 f21 ?v1) ?v3))))))
(assert (forall ((?v0 S2) (?v1 S2) (?v2 S2) (?v3 S2)) (let ((?v_1 (f20 f21 (f19 (f20 f21 ?v0) ?v1))) (?v_0 (f20 f21 ?v2))) (= (f19 ?v_1 (f19 ?v_0 ?v3)) (f19 ?v_0 (f19 ?v_1 ?v3))))))
(assert (forall ((?v0 S2) (?v1 S2) (?v2 S2) (?v3 S2)) (let ((?v_0 (f20 f21 ?v0)) (?v_1 (f19 (f20 f21 ?v2) ?v3))) (= (f19 (f20 f21 (f19 ?v_0 ?v1)) ?v_1) (f19 ?v_0 (f19 (f20 f21 ?v1) ?v_1))))))
(assert (forall ((?v0 S2) (?v1 S2) (?v2 S2)) (let ((?v_0 (f20 f21 ?v0))) (= (f19 (f20 f21 (f19 ?v_0 ?v1)) ?v2) (f19 (f20 f21 (f19 ?v_0 ?v2)) ?v1)))))
(assert (forall ((?v0 S2) (?v1 S2) (?v2 S2)) (let ((?v_0 (f20 f21 ?v0))) (= (f19 (f20 f21 (f19 ?v_0 ?v1)) ?v2) (f19 ?v_0 (f19 (f20 f21 ?v1) ?v2))))))
(assert (forall ((?v0 S2) (?v1 S2) (?v2 S2)) (let ((?v_0 (f20 f21 ?v0))) (= (f19 ?v_0 (f19 (f20 f21 ?v1) ?v2)) (f19 (f20 f21 (f19 ?v_0 ?v1)) ?v2)))))
(assert (forall ((?v0 S2) (?v1 S2) (?v2 S2)) (let ((?v_1 (f20 f21 ?v0)) (?v_0 (f20 f21 ?v1))) (= (f19 ?v_1 (f19 ?v_0 ?v2)) (f19 ?v_0 (f19 ?v_1 ?v2))))))
(assert (forall ((?v0 S2) (?v1 S2)) (= (f19 (f20 f21 ?v0) ?v1) (f19 (f20 f21 ?v1) ?v0))))
(assert (forall ((?v0 S2) (?v1 S2) (?v2 S2) (?v3 S2)) (let ((?v_0 (f20 f25 ?v0))) (= (f19 (f20 f25 (f19 ?v_0 ?v1)) (f19 (f20 f25 ?v2) ?v3)) (f19 (f20 f25 (f19 ?v_0 ?v2)) (f19 (f20 f25 ?v1) ?v3))))))
(assert (forall ((?v0 S2) (?v1 S2) (?v2 S2)) (let ((?v_0 (f20 f25 ?v0))) (= (f19 (f20 f25 (f19 ?v_0 ?v1)) ?v2) (f19 (f20 f25 (f19 ?v_0 ?v2)) ?v1)))))
(assert (forall ((?v0 S2) (?v1 S2) (?v2 S2)) (let ((?v_0 (f20 f25 ?v0))) (= (f19 (f20 f25 (f19 ?v_0 ?v1)) ?v2) (f19 ?v_0 (f19 (f20 f25 ?v1) ?v2))))))
(assert (forall ((?v0 S2) (?v1 S2) (?v2 S2)) (let ((?v_0 (f20 f25 ?v0))) (= (f19 ?v_0 (f19 (f20 f25 ?v1) ?v2)) (f19 (f20 f25 (f19 ?v_0 ?v1)) ?v2)))))
(assert (forall ((?v0 S2) (?v1 S2) (?v2 S2)) (let ((?v_1 (f20 f25 ?v0)) (?v_0 (f20 f25 ?v1))) (= (f19 ?v_1 (f19 ?v_0 ?v2)) (f19 ?v_0 (f19 ?v_1 ?v2))))))
(assert (forall ((?v0 S2) (?v1 S2)) (= (f19 (f20 f25 ?v0) ?v1) (f19 (f20 f25 ?v1) ?v0))))
(assert (forall ((?v0 S2) (?v1 S2) (?v2 S2)) (let ((?v_0 (f24 ?v0))) (=> (= (f23 ?v_0 ?v1) f1) (=> (= (f23 (f24 ?v1) ?v2) f1) (= (f23 ?v_0 ?v2) f1))))))
(assert (forall ((?v0 S2)) (= (f23 (f24 ?v0) ?v0) f1)))
(assert (forall ((?v0 S2) (?v1 S2) (?v2 S2)) (let ((?v_0 (f20 f25 ?v0))) (= (f19 (f20 f25 (f19 ?v_0 ?v1)) ?v2) (f19 ?v_0 (f19 (f20 f25 ?v1) ?v2))))))
(assert (forall ((?v0 S2) (?v1 S2) (?v2 S2)) (let ((?v_1 (f20 f25 ?v0)) (?v_0 (f20 f25 ?v1))) (= (f19 ?v_1 (f19 ?v_0 ?v2)) (f19 ?v_0 (f19 ?v_1 ?v2))))))
(assert (forall ((?v0 S2) (?v1 S2)) (= (f19 (f20 f25 ?v0) ?v1) (f19 (f20 f25 ?v1) ?v0))))
(assert (forall ((?v0 S2) (?v1 S2) (?v2 S2)) (let ((?v_0 (f20 f21 ?v0))) (= (f19 (f20 f21 (f19 ?v_0 ?v1)) ?v2) (f19 ?v_0 (f19 (f20 f21 ?v1) ?v2))))))
(assert (forall ((?v0 S2) (?v1 S2)) (= (f19 (f20 f21 ?v0) ?v1) (f19 (f20 f21 ?v1) ?v0))))
(assert (forall ((?v0 S2) (?v1 S2)) (=> (= (f19 (f20 f21 ?v0) ?v1) f26) (or (= ?v0 f26) (= ?v1 f26)))))
(assert (forall ((?v0 S2) (?v1 S2)) (=> (not (= ?v0 f26)) (=> (not (= ?v1 f26)) (not (= (f19 (f20 f21 ?v0) ?v1) f26))))))
(assert (forall ((?v0 S2) (?v1 S2)) (= (= (f19 (f20 f21 ?v0) ?v1) f26) (or (= ?v0 f26) (= ?v1 f26)))))
(assert (forall ((?v0 S2)) (= (f19 (f20 f21 ?v0) f26) f26)))
(assert (forall ((?v0 S2)) (= (f19 (f20 f21 ?v0) f26) f26)))
(assert (forall ((?v0 S2)) (= (f19 (f20 f21 f26) ?v0) f26)))
(assert (forall ((?v0 S2)) (= (f19 (f20 f21 f26) ?v0) f26)))
(assert (forall ((?v0 S2)) (= (= (f19 (f20 f25 ?v0) ?v0) f26) (= ?v0 f26))))
(assert (forall ((?v0 S2) (?v1 S2)) (= (= ?v0 (f19 (f20 f25 ?v0) ?v1)) (= ?v1 f26))))
(assert (forall ((?v0 S2)) (= (f19 (f20 f25 ?v0) f26) ?v0)))
(assert (forall ((?v0 S2)) (= (f19 (f20 f25 f26) ?v0) ?v0)))
(assert (forall ((?v0 S2)) (=> (= (f23 (f24 f26) ?v0) f1) (= ?v0 f26))))
(assert (forall ((?v0 S2) (?v1 S2) (?v2 S2) (?v3 S2)) (let ((?v_0 (f20 f21 ?v0)) (?v_1 (f20 f21 ?v2))) (= (= (f19 (f20 f25 (f19 ?v_0 ?v1)) (f19 ?v_1 ?v3)) (f19 (f20 f25 (f19 ?v_0 ?v3)) (f19 ?v_1 ?v1))) (or (= ?v0 ?v2) (= ?v1 ?v3))))))
(assert (forall ((?v0 S2) (?v1 S2) (?v2 S2) (?v3 S2)) (= (f19 (f20 f25 (f19 (f20 f21 ?v0) ?v1)) (f19 (f20 f25 (f19 (f20 f21 ?v2) ?v1)) ?v3)) (f19 (f20 f25 (f19 (f20 f21 (f19 (f20 f25 ?v0) ?v2)) ?v1)) ?v3))))
(assert (forall ((?v0 S2) (?v1 S17)) (= (= (f29 ?v0 ?v1) f1) (= (f23 ?v1 ?v0) f1))))
(assert (forall ((?v0 S3) (?v1 S4)) (= (= (f3 ?v0 ?v1) f1) (= (f30 ?v1 ?v0) f1))))
(assert (forall ((?v0 S2) (?v1 S2) (?v2 S2)) (= (f19 (f20 f25 (f19 (f20 f21 ?v0) ?v1)) (f19 (f20 f21 ?v2) ?v1)) (f19 (f20 f21 (f19 (f20 f25 ?v0) ?v2)) ?v1))))
(assert (forall ((?v0 S2) (?v1 S2) (?v2 S2)) (= (f19 (f20 f21 (f19 (f20 f25 ?v0) ?v1)) ?v2) (f19 (f20 f25 (f19 (f20 f21 ?v0) ?v2)) (f19 (f20 f21 ?v1) ?v2)))))
(assert (forall ((?v0 S2) (?v1 S2) (?v2 S2)) (= (f19 (f20 f21 (f19 (f20 f25 ?v0) ?v1)) ?v2) (f19 (f20 f25 (f19 (f20 f21 ?v0) ?v2)) (f19 (f20 f21 ?v1) ?v2)))))
(assert (forall ((?v0 S2) (?v1 S2) (?v2 S2) (?v3 S2)) (let ((?v_0 (f20 f21 ?v0)) (?v_1 (f20 f21 ?v1))) (= (and (not (= ?v0 ?v1)) (not (= ?v2 ?v3))) (not (= (f19 (f20 f25 (f19 ?v_0 ?v2)) (f19 ?v_1 ?v3)) (f19 (f20 f25 (f19 ?v_0 ?v3)) (f19 ?v_1 ?v2))))))))
(assert (forall ((?v0 S2) (?v1 S2) (?v2 S2)) (let ((?v_0 (f20 f21 ?v0))) (= (f19 ?v_0 (f19 (f20 f25 ?v1) ?v2)) (f19 (f20 f25 (f19 ?v_0 ?v1)) (f19 ?v_0 ?v2))))))
(assert (forall ((?v0 S2) (?v1 S2) (?v2 S2)) (=> (= (f23 (f24 (f19 (f20 f21 ?v0) ?v1)) ?v2) f1) (= (f23 (f24 ?v1) ?v2) f1))))
(assert (forall ((?v0 S2) (?v1 S2) (?v2 S2)) (=> (= (f23 (f24 (f19 (f20 f21 ?v0) ?v1)) ?v2) f1) (= (f23 (f24 ?v0) ?v2) f1))))
(assert (forall ((?v0 S2) (?v1 S2) (?v2 S2)) (=> (= ?v0 (f19 (f20 f21 ?v1) ?v2)) (= (f23 (f24 ?v1) ?v0) f1))))
(assert (forall ((?v0 S2) (?v1 S2) (?v2 S2) (?v3 S2)) (=> (= (f23 (f24 ?v0) ?v1) f1) (=> (= (f23 (f24 ?v2) ?v3) f1) (= (f23 (f24 (f19 (f20 f21 ?v0) ?v2)) (f19 (f20 f21 ?v1) ?v3)) f1)))))
(assert (forall ((?v0 S2) (?v1 S2) (?v2 S2)) (let ((?v_0 (f24 ?v0))) (=> (= (f23 ?v_0 ?v1) f1) (= (f23 ?v_0 (f19 (f20 f21 ?v2) ?v1)) f1)))))
(assert (forall ((?v0 S2) (?v1 S2) (?v2 S2)) (let ((?v_0 (f24 ?v0))) (=> (= (f23 ?v_0 ?v1) f1) (= (f23 ?v_0 (f19 (f20 f21 ?v1) ?v2)) f1)))))
(assert (forall ((?v0 S2) (?v1 S2)) (= (f23 (f24 ?v0) (f19 (f20 f21 ?v1) ?v0)) f1)))
(assert (forall ((?v0 S2) (?v1 S2)) (= (f23 (f24 ?v0) (f19 (f20 f21 ?v0) ?v1)) f1)))
(assert (forall ((?v0 S2) (?v1 S2) (?v2 S2)) (let ((?v_0 (f24 ?v0))) (=> (= (f23 ?v_0 ?v1) f1) (=> (= (f23 ?v_0 ?v2) f1) (= (f23 ?v_0 (f19 (f20 f25 ?v1) ?v2)) f1))))))
(assert (forall ((?v0 S2)) (= (f19 (f20 f25 ?v0) f26) ?v0)))
(assert (forall ((?v0 S2)) (= (f19 (f20 f25 f26) ?v0) ?v0)))
(assert (forall ((?v0 S2) (?v1 S2) (?v2 S2)) (= (f19 (f20 f21 (f19 (f20 f25 ?v0) ?v1)) ?v2) (f19 (f20 f25 (f19 (f20 f21 ?v0) ?v2)) (f19 (f20 f21 ?v1) ?v2)))))
(assert (forall ((?v0 S2) (?v1 S3) (?v2 S2) (?v3 S6)) (let ((?v_0 (f27 f15 ?v1))) (=> (= (f23 (f28 f26) ?v0) f1) (=> (or (= (f23 (f24 ?v_0) ?v0) f1) (= ?v_0 f26)) (= (= (f6 (f7 (f8 f9 ?v0) ?v1) (f16 (f17 f18 (f19 (f20 f21 ?v0) ?v2)) ?v3)) f1) (= (f6 ?v1 (f16 (f17 f18 ?v2) ?v3)) f1)))))))
(assert (forall ((?v0 S2) (?v1 S2)) (exists ((?v2 S2)) (forall ((?v3 S2)) (let ((?v_0 (= (f23 (f24 ?v0) (f19 (f20 f25 ?v3) ?v1)) f1))) (=> (= (f23 (f28 ?v2) ?v3) f1) (= ?v_0 ?v_0)))))))
(assert (forall ((?v0 S2) (?v1 S2)) (exists ((?v2 S2)) (forall ((?v3 S2)) (let ((?v_0 (= (f23 (f24 ?v0) (f19 (f20 f25 ?v3) ?v1)) f1))) (=> (= (f23 (f28 ?v3) ?v2) f1) (= ?v_0 ?v_0)))))))
(assert (forall ((?v0 S2) (?v1 S2)) (exists ((?v2 S2)) (forall ((?v3 S2)) (let ((?v_0 (not (= (f23 (f24 ?v0) (f19 (f20 f25 ?v3) ?v1)) f1)))) (=> (= (f23 (f28 ?v2) ?v3) f1) (= ?v_0 ?v_0)))))))
(assert (forall ((?v0 S2) (?v1 S2)) (exists ((?v2 S2)) (forall ((?v3 S2)) (let ((?v_0 (not (= (f23 (f24 ?v0) (f19 (f20 f25 ?v3) ?v1)) f1)))) (=> (= (f23 (f28 ?v3) ?v2) f1) (= ?v_0 ?v_0)))))))
(assert (forall ((?v0 S2) (?v1 S2)) (=> (= (f23 (f28 ?v0) f26) f1) (=> (= (f23 (f28 ?v1) f26) f1) (= (f23 (f28 (f19 (f20 f25 ?v0) ?v1)) f26) f1)))))
(assert (forall ((?v0 S2) (?v1 S2)) (let ((?v_0 (f28 f26))) (=> (= (f23 ?v_0 ?v0) f1) (=> (= (f23 ?v_0 ?v1) f1) (= (f23 ?v_0 (f19 (f20 f25 ?v0) ?v1)) f1))))))
(assert (forall ((?v0 S2)) (= (= (f23 (f28 (f19 (f20 f25 ?v0) ?v0)) f26) f1) (= (f23 (f28 ?v0) f26) f1))))
(assert (forall ((?v0 S2)) (let ((?v_0 (f28 f26))) (= (= (f23 ?v_0 (f19 (f20 f25 ?v0) ?v0)) f1) (= (f23 ?v_0 ?v0) f1)))))
(assert (forall ((?v0 S2) (?v1 S2)) (=> (= (f23 (f24 ?v0) ?v1) f1) (=> (forall ((?v2 S2)) (=> (= ?v1 (f19 (f20 f21 ?v0) ?v2)) false)) false))))
(assert (forall ((?v0 S12) (?v1 S5) (?v2 S12)) (= (= (f12 (f13 f14 ?v0) ?v1) (f12 (f13 f14 ?v2) ?v1)) (forall ((?v3 S3)) (=> (= (f3 ?v3 (f4 ?v1)) f1) (= (f27 ?v0 ?v3) (f27 ?v2 ?v3)))))))
(assert (forall ((?v0 S6)) (= (= (f10 f11 ?v0) f26) (= (f29 f26 (f31 ?v0)) f1))))
(assert (forall ((?v0 S2) (?v1 S6)) (=> (= (f29 ?v0 (f31 ?v1)) f1) (= (f23 (f24 ?v0) (f10 f11 ?v1)) f1))))
(assert (forall ((?v0 S2)) (= (= f26 ?v0) (= ?v0 f26))))
(assert (forall ((?v0 S2) (?v1 S2) (?v2 S2)) (let ((?v_0 (f20 f21 ?v0))) (= (f19 (f20 f21 (f19 ?v_0 ?v1)) ?v2) (f19 ?v_0 (f19 (f20 f21 ?v1) ?v2))))))
(assert (forall ((?v0 S2) (?v1 S2) (?v2 S2)) (let ((?v_0 (f20 f25 ?v0))) (= (f19 (f20 f25 (f19 ?v_0 ?v1)) ?v2) (f19 ?v_0 (f19 (f20 f25 ?v1) ?v2))))))
(assert (forall ((?v0 S2) (?v1 S2) (?v2 S2)) (let ((?v_0 (f20 f25 ?v0))) (= (= (f19 ?v_0 ?v1) (f19 ?v_0 ?v2)) (= ?v1 ?v2)))))
(assert (forall ((?v0 S2) (?v1 S2) (?v2 S2)) (= (= (f19 (f20 f25 ?v0) ?v1) (f19 (f20 f25 ?v2) ?v1)) (= ?v0 ?v2))))
(assert (forall ((?v0 S2) (?v1 S2) (?v2 S2)) (let ((?v_0 (f20 f25 ?v0))) (=> (= (f19 ?v_0 ?v1) (f19 ?v_0 ?v2)) (= ?v1 ?v2)))))
(assert (forall ((?v0 S2) (?v1 S2) (?v2 S2)) (let ((?v_0 (f20 f25 ?v0))) (=> (= (f19 ?v_0 ?v1) (f19 ?v_0 ?v2)) (= ?v1 ?v2)))))
(assert (forall ((?v0 S2) (?v1 S2) (?v2 S2)) (=> (= (f19 (f20 f25 ?v0) ?v1) (f19 (f20 f25 ?v2) ?v1)) (= ?v0 ?v2))))
(assert (forall ((?v0 S18) (?v1 S19)) (not (= ?v0 (f32 (f33 f34 ?v1) ?v0)))))
(assert (forall ((?v0 S22) (?v1 S18)) (not (= ?v0 (f35 (f36 f37 ?v1) ?v0)))))
(assert (forall ((?v0 S6) (?v1 S2)) (not (= ?v0 (f16 (f17 f18 ?v1) ?v0)))))
(assert (forall ((?v0 S19) (?v1 S18)) (not (= (f32 (f33 f34 ?v0) ?v1) ?v1))))
(assert (forall ((?v0 S18) (?v1 S22)) (not (= (f35 (f36 f37 ?v0) ?v1) ?v1))))
(assert (forall ((?v0 S2) (?v1 S6)) (not (= (f16 (f17 f18 ?v0) ?v1) ?v1))))
(assert (forall ((?v0 S19) (?v1 S18) (?v2 S19) (?v3 S18)) (= (= (f32 (f33 f34 ?v0) ?v1) (f32 (f33 f34 ?v2) ?v3)) (and (= ?v0 ?v2) (= ?v1 ?v3)))))
(assert (forall ((?v0 S18) (?v1 S22) (?v2 S18) (?v3 S22)) (= (= (f35 (f36 f37 ?v0) ?v1) (f35 (f36 f37 ?v2) ?v3)) (and (= ?v0 ?v2) (= ?v1 ?v3)))))
(assert (forall ((?v0 S2) (?v1 S6) (?v2 S2) (?v3 S6)) (= (= (f16 (f17 f18 ?v0) ?v1) (f16 (f17 f18 ?v2) ?v3)) (and (= ?v0 ?v2) (= ?v1 ?v3)))))
(assert (forall ((?v0 S2)) (= (f19 (f20 f25 f26) ?v0) ?v0)))
(assert (forall ((?v0 S2)) (= (f19 (f20 f25 f26) ?v0) ?v0)))
(assert (forall ((?v0 S2)) (= (= f26 (f19 (f20 f25 ?v0) ?v0)) (= ?v0 f26))))
(assert (forall ((?v0 S2)) (= (f19 (f20 f25 ?v0) f26) ?v0)))
(assert (forall ((?v0 S2)) (= (f19 (f20 f25 ?v0) f26) ?v0)))
(assert (forall ((?v0 S2) (?v1 S2) (?v2 S2)) (= (= (f23 (f28 (f19 (f20 f25 ?v0) ?v1)) (f19 (f20 f25 ?v2) ?v1)) f1) (= (f23 (f28 ?v0) ?v2) f1))))
(assert (forall ((?v0 S2) (?v1 S2) (?v2 S2)) (let ((?v_0 (f20 f25 ?v0))) (= (= (f23 (f28 (f19 ?v_0 ?v1)) (f19 ?v_0 ?v2)) f1) (= (f23 (f28 ?v1) ?v2) f1)))))
(check-sat)
(exit)
